COLUMNS

passenger_count
pickup_ID
dropoff_ID
request_time_sec
pickup_district
dropoff_district
LDuals
IDuals
vehicle_ID
pick_position
drop_position

REQUESTS_INFO
1      1002      674       29194     291       189       157       157       4         1         3         
1      773       670       29239     290       280       96        96        53        1         3         
3      200       655       29109     87        189       294       294       82        1         2         
3      680       842       29192     290       290       176       176       190       1         2         
1      182       421       29194     178       168       188       188       206       1         2         
1      773       789       29226     290       290       126       126       214       1         2         
1      197       202       29236     178       87        209       209       251       1         2         
1      295       839       29239     87        290       124       124       339       1         2         
1      827       576       29231     291       189       125       125       353       1         3         
1      1066      581       29220     291       189       142       142       378       1         3         
1      1148      924       29212     291       290       130       130       382       1         2         
1      197       371       29231     178       52        198       198       391       1         3         
1      1207      924       29187     192       290       151       151       399       1         3         
3      330       647       29195     127       280       248       248       439       1         3         
1      458       605       29235     52        189       120       120       454       1         3         
2      1307      1095      29244     129       84        174       174       457       1         3         
1      366       555       29235     299       199       150       150       458       1         3         
3      171       499       29214     286       52        125       125       460       1         2         
1      1271      1218      29220     129       84        214       214       472       1         2         
1      1048      968       29229     291       290       179       179       489       1         3         
3      972       250       29221     290       127       160       160       514       1         2         
2      792       768       29076     290       290       291       291       526       1         2         
1      1208      1107      29148     192       291       204       204       544       1         2         
1      633       700       29223     189       290       149       149       556       1         2         
1      842       789       29111     290       290       307       307       561       1         2         
1      678       559       29214     290       189       148       148       563       1         2         
2      85        124       29249     287       54        129       129       616       1         2         
1      331       334       29231     127       119       194       194       696       1         2         
1      860       947       29085     290       290       277       277       709       1         2         
1      366       416       29239     299       100       146       146       721       1         2         
2      189       311       29245     286       87        81        81        924       1         2         
3      936       1529      29129     291       296       255       255       928       1         2         
1      573       554       29238     189       189       118       118       940       1         3         
1      338       504       29229     277       52        158       158       958       1         2         
1      858       742       29226     290       290       115       115       1023      1         3         
1      715       1227      29246     131       192       112       112       1027      1         2         
2      699       509       29245     290       199       110       110       1028      1         2         
3      176       416       29246     174       100       188       188       1033      1         2         
2      285       116       29246     299       9         110       110       1055      1         2         
1      875       698       29212     291       189       197       197       1060      1         4         
1      505       859       29237     52        290       132       132       1085      1         3         
1      841       561       29181     290       189       227       227       1095      1         2         
1      175       331       29160     266       127       255       255       1113      1         2         
4      909       1010      29178     290       290       241       241       1149      1         2         
1      888       673       29216     290       189       134       134       1150      1         3         
1      792       727       29154     290       290       213       213       1153      1         2         
2      948       748       29214     290       290       169       169       1183      1         3         
2      718       791       29238     189       290       85        85        1214      1         2         
1      200       287       29226     87        299       177       177       1222      1         2         
1      330       600       29210     127       280       233       233       1233      1         3         
2      948       882       29237     290       290       155       155       1338      1         2         
1      837       946       29236     290       290       130       130       1389      1         2         
1      413       670       29232     52        280       145       145       1431      1         4         
1      35        230       29236     98        266       139       139       1480      1         3         
3      873       439       29189     291       189       189       189       1498      1         2         
1      415       546       29250     100       52        0         0         0         0         0         
2      410       597       29250     52        131       0         0         0         0         0         
1      608       395       29250     189       100       0         0         0         0         0         
3      980       805       29250     291       291       0         0         0         0         0         
3      980       805       29250     291       291       0         0         0         0         0         
1      772       134       29250     290       9         0         0         0         0         0         
1      66        601       29251     98        189       0         0         0         0         0         
1      183       216       29251     178       178       0         0         0         0         0         
3      527       648       29251     52        189       0         0         0         0         0         
3      438       463       29251     100       168       0         0         0         0         0         
2      438       463       29251     100       168       0         0         0         0         0         
3      1053      836       29251     84        290       0         0         0         0         0         
2      1053      836       29251     84        290       0         0         0         0         0         
2      578       749       29251     189       290       0         0         0         0         0         
1      691       640       29251     131       131       0         0         0         0         0         
1      804       465       29252     291       199       0         0         0         0         0         
1      345       651       29252     299       189       0         0         0         0         0         
1      273       397       29252     206       168       0         0         0         0         0         
2      702       836       29252     290       290       0         0         0         0         0         
1      292       532       29252     87        199       0         0         0         0         0         
1      778       1263      29252     131       192       0         0         0         0         0         
1      509       698       29253     199       189       0         0         0         0         0         
3      535       416       29253     189       100       0         0         0         0         0         
1      693       698       29253     280       189       0         0         0         0         0         
3      535       416       29253     189       100       0         0         0         0         0         
1      888       648       29253     290       189       0         0         0         0         0         
1      333       604       29253     119       189       0         0         0         0         0         
2      968       720       29253     290       290       0         0         0         0         0         
1      794       505       29253     290       52        0         0         0         0         0         
2      743       722       29254     290       290       0         0         0         0         0         
2      748       1518      29254     290       296       0         0         0         0         0         
1      31        116       29254     9         9         0         0         0         0         0         
1      217       544       29254     87        52        0         0         0         0         0         
1      345       616       29255     299       131       0         0         0         0         0         
1      1095      1140      29255     84        84        0         0         0         0         0         
1      529       602       29255     189       189       0         0         0         0         0         
1      331       478       29255     127       52        0         0         0         0         0         
1      813       992       29255     290       290       0         0         0         0         0         
1      714       488       29255     131       199       0         0         0         0         0         
3      413       555       29256     52        199       0         0         0         0         0         
3      413       555       29256     52        199       0         0         0         0         0         
1      624       696       29256     189       189       0         0         0         0         0         
1      556       598       29256     199       189       0         0         0         0         0         
1      1149      718       29256     291       189       0         0         0         0         0         
1      577       509       29256     189       199       0         0         0         0         0         
1      971       1055      29256     290       84        0         0         0         0         0         
1      246       499       29257     266       52        0         0         0         0         0         
1      348       576       29257     299       189       0         0         0         0         0         
1      485       609       29257     189       189       0         0         0         0         0         
1      891       760       29257     291       291       0         0         0         0         0         
2      1234      535       29257     129       189       0         0         0         0         0         
3      1234      535       29257     129       189       0         0         0         0         0         
1      432       555       29258     52        199       0         0         0         0         0         
1      947       604       29258     290       189       0         0         0         0         0         
2      498       229       29258     52        266       0         0         0         0         0         
1      377       439       29258     168       189       0         0         0         0         0         
1      331       531       29258     127       189       0         0         0         0         0         
1      669       501       29258     280       52        0         0         0         0         0         
2      972       558       29259     290       189       0         0         0         0         0         
1      694       34        29259     189       98        0         0         0         0         0         
1      687       718       29259     131       189       0         0         0         0         0         
1      814       887       29259     290       290       0         0         0         0         0         
3      816       881       29259     290       290       0         0         0         0         0         
1      800       694       29259     131       189       0         0         0         0         0         
2      816       881       29259     290       290       0         0         0         0         0         
2      694       698       29259     189       189       0         0         0         0         0         
3      972       558       29259     290       189       0         0         0         0         0         
1      210       696       29260     266       189       0         0         0         0         0         
1      676       795       29260     189       290       0         0         0         0         0         
1      1225      747       29260     192       290       0         0         0         0         0         
2      842       487       29260     290       199       0         0         0         0         0         
1      189       43        29261     286       9         0         0         0         0         0         
1      839       574       29261     290       189       0         0         0         0         0         
1      344       390       29261     299       52        0         0         0         0         0         
1      454       175       29261     52        266       0         0         0         0         0         
1      568       597       29262     52        131       0         0         0         0         0         
1      430       651       29262     52        189       0         0         0         0         0         
1      509       534       29263     199       199       0         0         0         0         0         
1      389       503       29263     299       52        0         0         0         0         0         
1      47        732       29263     98        131       0         0         0         0         0         
1      509       410       29263     199       52        0         0         0         0         0         
1      528       694       29263     52        189       0         0         0         0         0         
1      34        594       29263     98        131       0         0         0         0         0         
1      742       946       29264     290       290       0         0         0         0         0         
1      444       554       29264     168       189       0         0         0         0         0         
1      961       779       29264     291       131       0         0         0         0         0         
2      702       551       29264     290       189       0         0         0         0         0         
3      702       551       29264     290       189       0         0         0         0         0         
1      248       327       29264     266       299       0         0         0         0         0         
1      483       742       29264     189       290       0         0         0         0         0         
1      937       1107      29264     291       291       0         0         0         0         0         
1      252       484       29265     206       189       0         0         0         0         0         
1      211       348       29265     266       299       0         0         0         0         0         
1      1068      531       29265     291       189       0         0         0         0         0         
1      852       959       29265     291       291       0         0         0         0         0         
3      1047      1024      29265     291       291       0         0         0         0         0         
2      1047      1024      29265     291       291       0         0         0         0         0         
3      990       870       29266     290       291       0         0         0         0         0         
1      527       63        29266     52        98        0         0         0         0         0         
1      369       601       29266     52        189       0         0         0         0         0         
1      526       667       29267     52        131       0         0         0         0         0         
1      916       651       29267     291       189       0         0         0         0         0         
1      555       709       29267     199       131       0         0         0         0         0         
3      873       576       29267     291       189       0         0         0         0         0         
2      873       576       29267     291       189       0         0         0         0         0         
1      698       859       29268     189       290       0         0         0         0         0         
1      310       400       29268     127       168       0         0         0         0         0         
3      575       457       29268     189       52        0         0         0         0         0         
2      575       457       29268     189       52        0         0         0         0         0         
2      375       250       29268     119       127       0         0         0         0         0         
1      389       615       29269     299       131       0         0         0         0         0         
1      348       331       29269     299       127       0         0         0         0         0         
1      389       626       29269     299       189       0         0         0         0         0         
1      1107      1225      29269     291       192       0         0         0         0         0         
1      888       34        29269     290       98        0         0         0         0         0         
3      171       304       29269     286       299       0         0         0         0         0         
1      694       828       29269     189       291       0         0         0         0         0         
2      549       475       29270     52        52        0         0         0         0         0         
1      841       459       29270     290       189       0         0         0         0         0         
1      669       604       29270     280       189       0         0         0         0         0         
1      983       743       29270     291       290       0         0         0         0         0         
1      812       947       29270     290       290       0         0         0         0         0         
1      621       673       29270     280       189       0         0         0         0         0         
1      771       1011      29270     290       84        0         0         0         0         0         
1      440       331       29270     168       127       0         0         0         0         0         
1      676       882       29270     189       290       0         0         0         0         0         
3      914       672       29270     291       189       0         0         0         0         0         
1      508       579       29271     199       189       0         0         0         0         0         
1      118       528       29271     286       52        0         0         0         0         0         
1      295       552       29271     87        189       0         0         0         0         0         
1      835       946       29271     290       290       0         0         0         0         0         
1      629       724       29272     189       290       0         0         0         0         0         
1      43        49        29272     9         98        0         0         0         0         0         
1      816       554       29272     290       189       0         0         0         0         0         
1      621       625       29273     280       189       0         0         0         0         0         
1      672       557       29273     189       189       0         0         0         0         0         
1      549       668       29273     52        280       0         0         0         0         0         
1      651       904       29274     189       290       0         0         0         0         0         
1      722       527       29274     290       52        0         0         0         0         0         
1      835       396       29274     290       119       0         0         0         0         0         
1      134       126       29274     9         178       0         0         0         0         0         
1      533       504       29274     199       52        0         0         0         0         0         
2      621       648       29274     280       189       0         0         0         0         0         
1      1180      377       29274     84        168       0         0         0         0         0         
3      654       534       29275     189       199       0         0         0         0         0         
1      352       462       29275     119       189       0         0         0         0         0         
1      748       810       29275     290       290       0         0         0         0         0         
1      527       557       29275     52        189       0         0         0         0         0         
1      444       10        29275     168       98        0         0         0         0         0         
1      842       627       29275     290       189       0         0         0         0         0         
1      936       603       29275     291       189       0         0         0         0         0         
1      745       651       29275     290       189       0         0         0         0         0         
1      991       698       29275     290       189       0         0         0         0         0         
3      654       534       29275     189       199       0         0         0         0         0         
1      969       1227      29275     290       192       0         0         0         0         0         
3      621       834       29276     280       290       0         0         0         0         0         
1      267       252       29276     266       206       0         0         0         0         0         
1      842       397       29276     290       168       0         0         0         0         0         
1      257       629       29276     87        189       0         0         0         0         0         
1      980       923       29277     291       290       0         0         0         0         0         
2      629       1099      29277     189       84        0         0         0         0         0         
3      629       1099      29277     189       84        0         0         0         0         0         
1      523       727       29277     52        290       0         0         0         0         0         
1      171       523       29277     286       52        0         0         0         0         0         
1      355       134       29277     119       9         0         0         0         0         0         
1      174       116       29278     266       9         0         0         0         0         0         
2      696       870       29278     189       291       0         0         0         0         0         
1      573       175       29278     189       266       0         0         0         0         0         
1      43        10        29278     9         98        0         0         0         0         0         
1      1048      1218      29278     291       84        0         0         0         0         0         
1      726       782       29278     290       291       0         0         0         0         0         
1      333       461       29278     119       189       0         0         0         0         0         
1      618       647       29278     131       280       0         0         0         0         0         
3      488       267       29278     199       266       0         0         0         0         0         
3      488       267       29278     199       266       0         0         0         0         0         
1      1026      1217      29278     291       84        0         0         0         0         0         
1      906       836       29279     290       290       0         0         0         0         0         
1      507       210       29279     189       266       0         0         0         0         0         
1      768       476       29279     290       52        0         0         0         0         0         
1      355       123       29279     119       54        0         0         0         0         0         
1      602       507       29279     189       189       0         0         0         0         0         
1      702       231       29279     290       266       0         0         0         0         0         
2      418       529       29279     168       189       0         0         0         0         0         
4      487       678       29279     199       290       0         0         0         0         0         
